job_count = 24 ;
duration = [|9, 9, 3|27, 6, 6|28, 18, 9|6, 15, 8|18, 11, 4|13, 15, 4|9, 11, 8|8, 8, 9|14, 16, 6|24, 8, 4|18, 18, 9|20, 9, 9|12, 12, 1|5, 16, 6|18, 3, 8|3, 12, 7|22, 2, 6|25, 19, 9|12, 13, 4|10, 14, 3|14, 16, 5|25, 9, 8|17, 8, 7|23, 13, 8|] ;
machine_count = 3 ;
cost = [|16, 23, 51|19, 39, 44|19, 39, 54|12, 22, 44|13, 28, 34|17, 32, 53|14, 36, 47|17, 34, 41|12, 24, 40|19, 23, 45|10, 32, 43|18, 32, 44|11, 30, 30|13, 27, 30|17, 20, 47|14, 22, 51|11, 32, 41|11, 28, 36|16, 20, 43|10, 36, 56|12, 39, 41|12, 39, 35|12, 37, 59|16, 38, 42|] ;
deadline = [53, 53, 53, 53, 53, 53, 53, 53, 53, 53, 53, 53, 53, 53, 53, 53, 53, 53, 53, 53, 53, 53, 53, 53] ;
release = [0, 0, 0, 0, 0, 0, 0, 0, 0, 0, 0, 0, 0, 0, 0, 0, 0, 0, 0, 0, 0, 0, 0, 0] ;
resource = [|7, 7, 7|2, 2, 2|4, 4, 4|9, 9, 9|4, 4, 4|3, 3, 3|7, 7, 7|7, 7, 7|8, 8, 8|7, 7, 7|4, 4, 4|2, 2, 2|8, 8, 8|7, 7, 7|3, 3, 3|2, 2, 2|8, 8, 8|6, 6, 6|2, 2, 2|3, 3, 3|9, 9, 9|7, 7, 7|6, 6, 6|3, 3, 3|] ;
capacities = [10, 10, 10] ;
